experiments/sat_smt/run/sat-r/results/alice.res
solved=true
solvingTime=1665.856689453125
nActions=19