experiments/sat_smt/run/sat-r/results/alice.out
Timesteps: 1
s UNSATISFIABLE
real 0.19
user 0.03
sys 0.00
Timesteps: 2
s UNSATISFIABLE
real 0.28
user 0.07
sys 0.01
Timesteps: 3
s UNSATISFIABLE
real 0.40
user 0.25
sys 0.01
Timesteps: 4
s UNSATISFIABLE
real 0.95
user 0.77
sys 0.01
Timesteps: 5
s UNSATISFIABLE
real 2.93
user 2.63
sys 0.03
Timesteps: 6
s UNSATISFIABLE
real 6.31
user 6.00
sys 0.03
Timesteps: 7
s UNSATISFIABLE
real 21.46
user 20.56
sys 0.06
Timesteps: 8
s UNSATISFIABLE
real 18.11
user 17.12
sys 0.04
Timesteps: 9
s UNSATISFIABLE
real 26.53
user 25.37
sys 0.09
Timesteps: 10
s UNSATISFIABLE
real 34.23
user 32.89
sys 0.09
Timesteps: 11
s UNSATISFIABLE
real 35.05
user 33.57
sys 0.13
Timesteps: 12
s UNSATISFIABLE
real 46.84
user 45.22
sys 0.15
Timesteps: 13
s UNSATISFIABLE
real 63.13
user 62.19
sys 0.13
Timesteps: 14
s UNSATISFIABLE
real 87.83
user 86.39
sys 0.18
Timesteps: 15
s UNSATISFIABLE
real 134.29
user 132.94
sys 0.21
Timesteps: 16
s UNSATISFIABLE
real 233.49
user 231.68
sys 0.28
Timesteps: 17
s UNSATISFIABLE
real 273.51
user 271.47
sys 0.27
Timesteps: 18
s UNSATISFIABLE
real 478.92
user 475.89
sys 0.47
Timesteps: 19
s SATISFIABLE
real 211.94
user 210.13
sys 0.29
